(set-logic QF_S)
(declare-fun var0 () String)
(assert (RegexIn var0 (RegexConcat (RegexStar (RegexUnion (RegexStar (RegexStar (RegexUnion (RegexStar (RegexPlus (RegexPlus (RegexUnion (RegexPlus (Str2Reg "00")) (RegexPlus (Str2Reg "11")))))) (RegexStar (RegexStar (RegexPlus (RegexUnion (RegexUnion (Str2Reg "222") (Str2Reg "333")) (RegexUnion (Str2Reg "4") (Str2Reg "5"))))))))) (RegexStar (RegexUnion (RegexStar (RegexStar (RegexUnion (RegexUnion (RegexUnion (RegexPlus (Str2Reg "666")) (RegexPlus (Str2Reg "77"))) (RegexUnion (RegexUnion (Str2Reg "8") (Str2Reg "99")) (RegexUnion (Str2Reg "a") (Str2Reg "bb")))) (RegexUnion (RegexPlus (RegexUnion (Str2Reg "cc") (Str2Reg "dd"))) (RegexPlus (RegexStar (Str2Reg "ee"))))))) (RegexStar (RegexStar (RegexStar (RegexPlus (RegexStar (RegexUnion (Str2Reg "ff") (Str2Reg "ggg"))))))))))) (RegexStar (RegexStar (RegexUnion (RegexUnion (RegexPlus (RegexPlus (RegexStar (RegexPlus (RegexUnion (RegexUnion (Str2Reg "hhh") (Str2Reg "i")) (RegexUnion (Str2Reg "jj") (Str2Reg "k"))))))) (RegexPlus (RegexStar (RegexPlus (RegexUnion (RegexUnion (RegexUnion (Str2Reg "lll") (Str2Reg "m")) (RegexUnion (Str2Reg "nn") (Str2Reg "oo"))) (RegexUnion (RegexUnion (Str2Reg "p") (Str2Reg "qq")) (RegexUnion (Str2Reg "r") (Str2Reg "sss")))))))) (RegexUnion (RegexStar (RegexPlus (RegexPlus (RegexUnion (RegexStar (RegexStar (Str2Reg "t"))) (RegexStar (RegexStar (Str2Reg "uuu"))))))) (RegexStar (RegexStar (RegexUnion (RegexStar (RegexUnion (RegexPlus (Str2Reg "v")) (RegexPlus (Str2Reg "ww")))) (RegexStar (RegexPlus (RegexUnion (Str2Reg "xxx") (Str2Reg "y"))))))))))))))
(assert (<= 15 (Length var0)))
(check-sat)